157877
2
6
9
13
14
25
26
28
31
35
38
43
46
47
50
55
58
61
62
64
66
67
68
69
70
79
80
82
86
89
92
93
98
99
107
112
118
119
122
123
130
133
134
139
147
154
155
159
163
167
184
187
188
189
196
200
203
207
212
216
222
225
226
229
230
231
235
239
242
243
245
248
251
256
258
260
263
264
265
267
268
278
281
283
291
292
294
301
310
312
313
314
317
328
339
343
359
360
361
364
369
384
390
391
392
393
394
402
406
415
418
424
425
426
428
429
432
435
445
446
447
448
453
454
455
456
465
476
481
483
484
490
493
496
505
507
512
514
518
525
528
529
530
531
532
534
535
539
542
546
549
550
561
564
567
569
572
574
584
585
599
602
610
618
620
621
625
626
629
634
635
636
643
645
648
649
650
653
654
655
661
662
666
